solution status: optimal solution found
objective value:                     2.99999994704055
shell_j_thing.thing.chamber[1].thingy.v12                    1 	(obj:0)
shell_i_thing.thing.dead_cell                       1 	(obj:0)
shell_i_thing.thing.chamber[1].thingy.v13                    1 	(obj:0)
shell_i_thing.thing.chamber[2].thingy.v13                    1 	(obj:0)
shell_i_thing.thing.chamber[0].thingy.v6                    1 	(obj:0)
shell_i_thing.thing.chamber[0].thingy.v4                    1 	(obj:0)
shell_i_thing.thing.chamber[0].thingy.v8                    1 	(obj:0)
shell_i_thing.thing.wash                            1 	(obj:0)
shell_i_thing.thing.elute                           1 	(obj:0)
shell_i_thing.thing.dead_bead                       1 	(obj:0)
shell_i_thing.thing.chamber[0].thingy.v13                    1 	(obj:0)
shell_i_thing.thing.chamber[0].thingy.v12                    1 	(obj:0)
shell_i_thing.thing.dead_buffer                     1 	(obj:0)
shell_i_thing.thing.chamber[2].thingy.v12                    1 	(obj:0)
shell_i_thing.thing.lysis                           1 	(obj:0)
thing.thing.chamber[0].thingy.v8_x                  -13 	(obj:0)
thing.thing.chamber[0].thingy.v8_y                  -13 	(obj:0)
thing.thing.chamber[0].thingy.v8_z    -17.9999999739181 	(obj:0)
thing.thing.chamber[1].thingy.v13_z    -23.9999999217216 	(obj:0)
thing.thing.chamber[1].thingy.v12_y                  -13 	(obj:0)
thing.thing.wash_x                                -13 	(obj:0)
thing.thing.wash_y                  -13.0000000730344 	(obj:0)
thing.thing.wash_z                  -17.0000000070022 	(obj:0)
thing.thing.dead_cell_x                           -13 	(obj:0)
thing.thing.chamber[2].thingy.v13_x                  -13 	(obj:0)
thing.thing.elute_x                               -13 	(obj:0)
thing.thing.elute_y                               -12 	(obj:0)
thing.thing.elute_z                 -16.0000000617218 	(obj:0)
thing.thing.chamber[2].thingy.v13_y                  -13 	(obj:0)
thing.thing.chamber[2].thingy.v13_z                  -25 	(obj:0)
thing.thing.dead_bead_x                           -13 	(obj:0)
thing.thing.dead_bead_y                           -12 	(obj:0)
thing.thing.dead_bead_z             -22.0000000003819 	(obj:0)
thing.thing.dead_cell_y                           -13 	(obj:0)
thing.thing.dead_cell_z             -18.9999999966266 	(obj:0)
thing.thing.chamber[0].thingy.v13_x                  -13 	(obj:0)
thing.thing.chamber[0].thingy.v13_y    -13.0000000824425 	(obj:0)
thing.thing.chamber[0].thingy.v13_z    -22.9999999853506 	(obj:0)
thing.thing.chamber[0].thingy.v6_x                  -13 	(obj:0)
thing.thing.chamber[0].thingy.v6_y                  -13 	(obj:0)
thing.thing.chamber[0].thingy.v12_x                  -13 	(obj:0)
thing.thing.chamber[0].thingy.v12_y                  -13 	(obj:0)
thing.thing.chamber[0].thingy.v12_z                  -20 	(obj:0)
thing.thing.chamber[0].thingy.v6_z                  -15 	(obj:0)
thing.thing.chamber[1].thingy.v12_z    -21.0000000825178 	(obj:0)
thing.thing.dead_buffer_x                         -13 	(obj:0)
thing.thing.dead_buffer_y           -12.0000000380795 	(obj:0)
thing.thing.dead_buffer_z                         -21 	(obj:0)
thing.thing.chamber[1].thingy.v12_x                  -13 	(obj:0)
thing.thing.chamber[0].thingy.v4_x                  -13 	(obj:0)
thing.thing.chamber[2].thingy.v12_x                  -13 	(obj:0)
thing.thing.chamber[2].thingy.v12_y    -13.0000001166438 	(obj:0)
thing.thing.chamber[2].thingy.v12_z    -21.9999999962934 	(obj:0)
thing.thing.chamber[0].thingy.v4_y    -13.0000001047986 	(obj:0)
thing.thing.chamber[0].thingy.v4_z                  -16 	(obj:0)
thing.thing.lysis_x                               -13 	(obj:0)
thing.thing.lysis_y                 -12.0000000043037 	(obj:0)
thing.thing.lysis_z                               -19 	(obj:0)
thing.thing.chamber[1].thingy.v13_x                  -13 	(obj:0)
thing.thing.chamber[1].thingy.v13_y                  -13 	(obj:0)
x78                              -6.78193232413569e-09 	(obj:1)
x92                              -6.79596464089609e-09 	(obj:1)
x98                              -6.81468479491617e-09 	(obj:1)
x99                              -6.78193232413564e-09 	(obj:1)
x101                                                1 	(obj:1)
x107                             -6.80567604647697e-09 	(obj:1)
x113                                0.999999993118645 	(obj:1)
x116                             -6.79381610994219e-09 	(obj:1)
x119                                0.999999994695912 	(obj:1)
